
Gurobi 11.0.1 (win64) logging started Fri Mar 22 17:10:14 2024

Set parameter LogFile to value "C:\Projetos\Job_Rotation_Algorithms\Outputs\GurobiLogs\gurobi_log-output-39_hes-c175-CostaMirallesModel-NoExtraConstraint-2.log"
Gurobi Optimizer version 11.0.1 build v11.0.1rc0 (win64 - Windows 10.0 (19045.2))

CPU model: 11th Gen Intel(R) Core(TM) i7-1165G7 @ 2.80GHz, instruction set [SSE2|AVX|AVX2|AVX512]
Thread count: 4 physical cores, 8 logical processors, using up to 1 threads

WLS license 901039 - registered to Bitka Analytics
Optimize a model with 480 rows, 943 columns and 7739 nonzeros
Model fingerprint: 0xf3b9dd19
Variable types: 2 continuous, 941 integer (941 binary)
Coefficient statistics:
  Matrix range     [1e+00, 2e+02]
  Objective range  [1e+00, 1e+00]
  Bounds range     [1e+00, 4e+02]
  RHS range        [1e+00, 4e+02]
Presolve removed 131 rows and 113 columns
Presolve time: 0.03s
Presolved: 349 rows, 830 columns, 5103 nonzeros
Variable types: 0 continuous, 830 integer (829 binary)

Root relaxation: objective 5.600000e+01, 473 iterations, 0.00 seconds (0.01 work units)

    Nodes    |    Current Node    |     Objective Bounds      |     Work
 Expl Unexpl |  Obj  Depth IntInf | Incumbent    BestBd   Gap | It/Node Time

     0     0   56.00000    0   20          -   56.00000      -     -    0s
     0     0   56.00000    0  124          -   56.00000      -     -    0s
     0     0   56.00000    0  107          -   56.00000      -     -    0s
     0     0   56.00000    0   26          -   56.00000      -     -    0s
     0     0   56.00000    0   47          -   56.00000      -     -    0s
     0     0   56.00000    0   18          -   56.00000      -     -    0s
     0     0   56.00000    0   82          -   56.00000      -     -    0s
     0     0   56.00000    0   34          -   56.00000      -     -    0s
     0     0   56.00000    0   34          -   56.00000      -     -    0s
     0     2   56.00000    0   19          -   56.00000      -     -    0s
H  471   129                      50.0000000   56.00000  12.0%  56.1    1s
*  681   143              26      51.0000000   56.00000  9.80%  63.5    2s
*  740   147              19      52.0000000   56.00000  7.69%  64.4    2s
*  813   171              26      53.0000000   56.00000  5.66%  64.0    2s
H 1217   150                      54.0000000   56.00000  3.70%  79.8    3s
  1425   156   56.00000    8   89   54.00000   56.00000  3.70%  91.8    5s
  2051   189   55.75000   17  150   54.00000   56.00000  3.70%   122   10s
  2836   168     cutoff   10        54.00000   56.00000  3.70%   135   15s

Cutting planes:
  Gomory: 5
  Cover: 1639
  Implied bound: 16
  Clique: 118
  MIR: 63
  StrongCG: 11
  GUB cover: 24
  Inf proof: 4
  Zero half: 9
  RLT: 7
  Relax-and-lift: 1

Explored 3571 nodes (486912 simplex iterations) in 18.41 seconds (18.61 work units)
Thread count was 1 (of 8 available processors)

Solution count 5: 54 53 52 ... 50

Optimal solution found (tolerance 1.00e-03)
Best objective 5.400000000000e+01, best bound 5.400000000000e+01, gap 0.0000%
